\ LP format - for model browsing. Use MPS format to capture full model detail.
Minimize
  10 m_0 + 100 m_1 + 30 h_0
Subject To
 R0: 4 m_0 + 40 m_1 + 20 h_0 >= 300
Bounds
 m_0 <= 9
 m_1 <= 9
 h_0 <= 9
Generals
 m_0 m_1 h_0
End
